0
Node Left Objective IInf Best_Integer Best_Bound ItCnt Gap
0+ 0 nan nan 136.4723 0.0000 nan 100.00%
0+ 0 nan nan 99.1655 0.0000 nan 100.00%
0 0 1.0620 26 99.1655 1.0620 177 98.93%
0 0 7.1762 28 99.1655 Cuts:23 204 92.76%
0 0 8.6406 32 99.1655 Cuts:31 240 91.29%
0 0 11.0750 32 99.1655 Cuts:26 266 88.83%
0+ 0 nan nan 85.0724 11.0750 nan 86.98%
0 0 12.5654 31 85.0724 Disjcuts:10 299 85.23%
0 0 13.7624 33 85.0724 Cuts:16 324 83.82%
0 0 13.8844 33 85.0724 Disjcuts:5 336 83.68%
0+ 0 nan nan 84.5865 13.8844 nan 83.59%
0+ 0 nan nan 73.9248 13.8844 nan 81.22%
0+ 0 nan nan 67.1972 13.8844 nan 79.34%
0 2 13.8844 33 67.1972 13.9689 336 79.21%
CPXPARAM_MIP_Cuts_Gomory-Disjunctive:Gomory 2
CPXPARAM_MIP_Cuts_Gomory-Disjunctive:Disjunctive 16
1
Node Left Objective IInf Best_Integer Best_Bound ItCnt Gap
0+ 0 nan nan 136.4723 0.0000 nan 100.00%
0+ 0 nan nan 99.1655 0.0000 nan 100.00%
0 0 0.0000 27 99.1655 0.0000 131 100.00%
0+ 0 nan nan 86.2827 0.0000 nan 100.00%
0 0 0.0000 20 86.2827 Cuts:2 135 100.00%
0+ 0 nan nan 77.7223 0.0000 nan 100.00%
0 0 0.0000 23 77.7223 Cuts:17 167 100.00%
0+ 0 nan nan 69.3264 0.0000 nan 100.00%
0+ 0 nan nan 46.7284 0.0000 nan 100.00%
0 2 0.0000 21 46.7284 0.0000 167 100.00%
CPXPARAM_MIP_Cuts_Gomory-Disjunctive:Gomory 0
CPXPARAM_MIP_Cuts_Gomory-Disjunctive:Disjunctive 0
2
Node Left Objective IInf Best_Integer Best_Bound ItCnt Gap
0+ 0 nan nan 136.4723 0.0000 nan 100.00%
0+ 0 nan nan 69.8576 0.0000 nan 100.00%
0 0 0.0000 23 69.8576 0.0000 131 100.00%
0 0 0.0000 24 69.8576 Cuts:22 165 100.00%
0 0 0.8466 26 69.8576 Cuts:20 246 98.79%
0 0 3.3758 29 69.8576 Cuts:27 305 95.17%
0 0 5.6521 26 69.8576 Cuts:21 334 91.91%
0+ 0 nan nan 62.5858 5.6521 nan 90.97%
0 0 7.3132 29 62.5858 Cuts:13 360 88.31%
0 0 7.5376 29 62.5858 Cuts:2 367 87.96%
0 0 7.5573 30 62.5858 Disjcuts:1 374 87.92%
0+ 0 nan nan 56.8775 7.5573 nan 86.71%
0+ 0 nan nan 54.4270 7.5573 nan 86.11%
0 2 7.5573 30 54.4270 7.5755 374 86.08%
CPXPARAM_MIP_Cuts_Gomory-Disjunctive:Gomory 2
CPXPARAM_MIP_Cuts_Gomory-Disjunctive:Disjunctive 15
3
Node Left Objective IInf Best_Integer Best_Bound ItCnt Gap
0+ 0 nan nan 136.4723 0.0000 nan 100.00%
0+ 0 nan nan 69.8576 0.0000 nan 100.00%
0 0 0.0000 23 69.8576 0.0000 128 100.00%
0+ 0 nan nan 52.6772 0.0000 nan 100.00%
0 0 0.0000 16 52.6772 Fract:1 129 100.00%
0+ 0 nan nan 20.1192 0.0000 nan 100.00%
0 0 0.0000 17 20.1192 Cuts:18 176 100.00%
0 0 0.0000 15 20.1192 Fract:2 177 100.00%
0+ 0 nan nan 19.4482 0.0000 nan 100.00%
0 2 0.0000 15 19.4482 0.0000 177 100.00%
CPXPARAM_MIP_Cuts_Gomory-Disjunctive:Gomory 1
CPXPARAM_MIP_Cuts_Gomory-Disjunctive:Disjunctive 0
4
Node Left Objective IInf Best_Integer Best_Bound ItCnt Gap
0+ 0 nan nan 115.1924 0.0000 nan 100.00%
0+ 0 nan nan 108.1598 0.0000 nan 100.00%
0+ 0 nan nan 98.2525 0.0000 nan 100.00%
0 0 10.9280 24 98.2525 10.9280 158 88.88%
0 0 16.0956 26 98.2525 Cuts:16 190 83.62%
0 0 17.8460 29 98.2525 Cuts:26 217 81.84%
0+ 0 nan nan 87.4798 17.8460 nan 79.60%
0 0 19.8024 28 87.4798 Cuts:16 244 77.36%
0 0 21.0992 30 87.4798 Cuts:12 262 75.88%
0 0 21.9390 30 87.4798 Cuts:17 289 74.92%
0 0 22.0143 26 87.4798 Disjcuts:1 298 74.84%
0 0 22.0500 27 87.4798 Cuts:2 311 74.79%
0+ 0 nan nan 63.7849 22.0500 nan 65.43%
0 2 22.0500 27 63.7849 22.1626 311 65.25%
CPXPARAM_MIP_Cuts_Gomory-Disjunctive:Gomory 2
CPXPARAM_MIP_Cuts_Gomory-Disjunctive:Disjunctive 10
5
Node Left Objective IInf Best_Integer Best_Bound ItCnt Gap
0+ 0 nan nan 115.1924 0.0000 nan 100.00%
0+ 0 nan nan 108.1598 0.0000 nan 100.00%
0+ 0 nan nan 79.8300 0.0000 nan 100.00%
0 0 0.0000 27 79.8300 0.0000 129 100.00%
0+ 0 nan nan 77.7750 0.0000 nan 100.00%
0 0 0.0000 20 77.7750 Fract:1 133 100.00%
0 0 0.0000 22 77.7750 Cuts:14 155 100.00%
0+ 0 nan nan 67.3310 0.0000 nan 100.00%
0+ 0 nan nan 66.4069 0.0000 nan 100.00%
0 2 0.0000 20 66.4069 0.0000 155 100.00%
CPXPARAM_MIP_Cuts_Gomory-Disjunctive:Gomory 0
CPXPARAM_MIP_Cuts_Gomory-Disjunctive:Disjunctive 0
6
Node Left Objective IInf Best_Integer Best_Bound ItCnt Gap
0+ 0 nan nan 115.1924 0.0000 nan 100.00%
0+ 0 nan nan 81.9438 0.0000 nan 100.00%
0 0 10.7107 19 81.9438 10.7107 153 86.93%
0+ 0 nan nan 80.6567 10.7107 nan 86.72%
0 0 15.0383 22 80.6567 Cuts:16 178 81.36%
0 0 19.1440 26 80.6567 Cuts:24 206 76.26%
0 0 21.5146 23 80.6567 Cuts:19 250 73.33%
0 0 22.5723 26 80.6567 Cuts:22 296 72.01%
0 0 23.2567 24 80.6567 Disjcuts:12 323 71.17%
0+ 0 nan nan 68.7487 23.2567 nan 66.17%
0+ 0 nan nan 52.0035 23.2567 nan 55.28%
0+ 0 nan nan 51.9567 23.2567 nan 55.24%
0 2 23.2567 24 51.9567 23.2861 323 55.18%
CPXPARAM_MIP_Cuts_Gomory-Disjunctive:Gomory 1
CPXPARAM_MIP_Cuts_Gomory-Disjunctive:Disjunctive 13
7
Node Left Objective IInf Best_Integer Best_Bound ItCnt Gap
0+ 0 nan nan 115.1924 0.0000 nan 100.00%
0+ 0 nan nan 81.9438 0.0000 nan 100.00%
0 0 0.0000 23 81.9438 0.0000 123 100.00%
0+ 0 nan nan 62.3577 0.0000 nan 100.00%
0+ 0 nan nan 41.4305 0.0000 nan 100.00%
0+ 0 nan nan 30.7090 0.0000 nan 100.00%
0 2 0.0000 16 30.7090 0.0000 123 100.00%
CPXPARAM_MIP_Cuts_Gomory-Disjunctive:Gomory 0
CPXPARAM_MIP_Cuts_Gomory-Disjunctive:Disjunctive 0
8
Node Left Objective IInf Best_Integer Best_Bound ItCnt Gap
0+ 0 nan nan 131.6037 0.0000 nan 100.00%
0+ 0 nan nan 111.2422 0.0000 nan 100.00%
0+ 0 nan nan 109.8445 0.0000 nan 100.00%
0 0 16.8750 23 109.8445 16.8750 153 84.64%
0 0 18.8668 27 109.8445 Cuts:12 183 82.82%
0 0 21.7491 30 109.8445 Cuts:23 209 80.20%
0 0 23.5847 29 109.8445 Cuts:17 241 78.53%
0 0 24.5257 32 109.8445 Cuts:19 274 77.67%
0 0 25.1390 33 109.8445 Cuts:8 302 77.11%
0 0 25.1899 31 109.8445 Cuts:4 316 77.07%
0 0 25.2738 33 109.8445 Disjcuts:4 327 76.99%
0 0 25.3217 32 109.8445 Disjcuts:2 335 76.95%
0 0 25.3511 32 109.8445 Disjcuts:1 339 76.92%
0 0 25.4750 33 109.8445 Disjcuts:2 344 76.81%
0 0 25.6270 32 109.8445 Disjcuts:1 350 76.67%
0+ 0 nan nan 104.9116 25.6270 nan 75.57%
0 0 25.7684 33 104.9116 Cuts:5 364 75.44%
0+ 0 nan nan 79.4664 25.7684 nan 67.57%
0 2 25.7684 33 79.4664 25.8040 364 67.53%
CPXPARAM_MIP_Cuts_Gomory-Disjunctive:Gomory 1
CPXPARAM_MIP_Cuts_Gomory-Disjunctive:Disjunctive 16
9
Node Left Objective IInf Best_Integer Best_Bound ItCnt Gap
0+ 0 nan nan 131.6037 0.0000 nan 100.00%
0+ 0 nan nan 111.2422 0.0000 nan 100.00%
0 0 0.0000 27 111.2422 0.0000 128 100.00%
0+ 0 nan nan 94.5662 0.0000 nan 100.00%
0 0 0.0000 23 94.5662 Disjcuts:5 140 100.00%
0 0 0.0000 21 94.5662 Cuts:31 189 100.00%
0+ 0 nan nan 84.8947 0.0000 nan 100.00%
0 0 0.0000 22 84.8947 Cuts:19 243 100.00%
0+ 0 nan nan 81.8551 0.0000 nan 100.00%
0+ 0 nan nan 73.7943 0.0000 nan 100.00%
0+ 0 nan nan 69.9419 0.0000 nan 100.00%
0+ 0 nan nan 59.6309 0.0000 nan 100.00%
0 2 0.0000 21 59.6309 0.0000 243 100.00%
CPXPARAM_MIP_Cuts_Gomory-Disjunctive:Gomory 1
CPXPARAM_MIP_Cuts_Gomory-Disjunctive:Disjunctive 0
10
Node Left Objective IInf Best_Integer Best_Bound ItCnt Gap
0+ 0 nan nan 131.6037 0.0000 nan 100.00%
0+ 0 nan nan 99.6733 0.0000 nan 100.00%
0 0 0.0000 23 99.6733 0.0000 139 100.00%
0 0 1.8891 26 99.6733 Cuts:28 216 98.10%
0 0 5.8327 26 99.6733 Cuts:24 256 94.15%
0 0 8.4434 29 99.6733 Cuts:21 292 91.53%
0 0 11.0543 25 99.6733 Cuts:27 334 88.91%
0 0 11.9207 31 99.6733 Cuts:29 369 88.04%
0 0 12.3550 28 99.6733 Disjcuts:6 387 87.60%
0+ 0 nan nan 76.3851 12.3550 nan 83.83%
0+ 0 nan nan 65.9546 12.3550 nan 81.27%
0 2 12.3550 28 65.9546 12.4478 387 81.13%
CPXPARAM_MIP_Cuts_Gomory-Disjunctive:Gomory 0
CPXPARAM_MIP_Cuts_Gomory-Disjunctive:Disjunctive 17
11
Node Left Objective IInf Best_Integer Best_Bound ItCnt Gap
0+ 0 nan nan 131.6037 0.0000 nan 100.00%
0+ 0 nan nan 99.6733 0.0000 nan 100.00%
0 0 0.0000 23 99.6733 0.0000 134 100.00%
0+ 0 nan nan 80.1830 0.0000 nan 100.00%
0 0 0.0000 17 80.1830 Cuts:5 145 100.00%
0+ 0 nan nan 76.9814 0.0000 nan 100.00%
0 0 0.0000 17 76.9814 Cuts:15 164 100.00%
0 0 0.0000 16 76.9814 Disjcuts:2 178 100.00%
0+ 0 nan nan 46.7957 0.0000 nan 100.00%
0+ 0 nan nan 35.9871 0.0000 nan 100.00%
0 2 0.0000 15 35.9871 0.0000 178 100.00%
CPXPARAM_MIP_Cuts_Gomory-Disjunctive:Gomory 0
CPXPARAM_MIP_Cuts_Gomory-Disjunctive:Disjunctive 0
12
Node Left Objective IInf Best_Integer Best_Bound ItCnt Gap
0+ 0 nan nan 110.3567 0.0000 nan 100.00%
0+ 0 nan nan 96.6816 0.0000 nan 100.00%
0 0 0.0000 27 96.6816 0.0000 148 100.00%
0 0 7.0414 29 96.6816 Cuts:30 224 92.72%
0 0 10.9658 29 96.6816 Cuts:25 262 88.66%
0 0 11.6910 32 96.6816 Cuts:11 282 87.91%
0 0 14.0390 31 96.6816 Cuts:21 318 85.48%
0 0 16.6904 32 96.6816 Cuts:22 369 82.74%
0 0 16.7327 33 96.6816 Disjcuts:1 376 82.69%
0+ 0 nan nan 75.8782 16.7327 nan 77.95%
0+ 0 nan nan 67.4188 16.7327 nan 75.18%
0 2 16.7327 33 67.4188 16.7856 376 75.10%
CPXPARAM_MIP_Cuts_Gomory-Disjunctive:Gomory 1
CPXPARAM_MIP_Cuts_Gomory-Disjunctive:Disjunctive 16
13
Node Left Objective IInf Best_Integer Best_Bound ItCnt Gap
0+ 0 nan nan 110.3567 0.0000 nan 100.00%
0+ 0 nan nan 96.6816 0.0000 nan 100.00%
0 0 0.0000 27 96.6816 0.0000 129 100.00%
0+ 0 nan nan 73.2319 0.0000 nan 100.00%
0 0 0.0000 21 73.2319 Cuts:7 139 100.00%
0 0 0.0000 23 73.2319 Cuts:19 190 100.00%
0+ 0 nan nan 59.5025 0.0000 nan 100.00%
0+ 0 nan nan 48.9645 0.0000 nan 100.00%
0 2 0.0000 20 48.9645 0.0000 190 100.00%
CPXPARAM_MIP_Cuts_Gomory-Disjunctive:Gomory 0
CPXPARAM_MIP_Cuts_Gomory-Disjunctive:Disjunctive 0
14
Node Left Objective IInf Best_Integer Best_Bound ItCnt Gap
0+ 0 nan nan 110.3567 0.0000 nan 100.00%
0+ 0 nan nan 82.1268 0.0000 nan 100.00%
0 0 0.0000 23 82.1268 0.0000 134 100.00%
0 0 2.8572 25 82.1268 Cuts:30 223 96.52%
0 0 7.7416 25 82.1268 Cuts:38 250 90.57%
0 0 10.0051 28 82.1268 Cuts:15 289 87.82%
0 0 10.7546 27 82.1268 Cuts:18 311 86.90%
0 0 11.3005 29 82.1268 Cuts:16 329 86.24%
0 0 11.4529 30 82.1268 Disjcuts:2 336 86.05%
0 0 11.4663 30 82.1268 Disjcuts:1 337 86.04%
0 0 11.4673 30 82.1268 Disjcuts:1 338 86.04%
0+ 0 nan nan 71.8602 11.4673 nan 84.04%
0+ 0 nan nan 56.8119 11.4673 nan 79.82%
0 2 11.4673 30 56.8119 11.5976 338 79.59%
CPXPARAM_MIP_Cuts_Gomory-Disjunctive:Gomory 3
CPXPARAM_MIP_Cuts_Gomory-Disjunctive:Disjunctive 16
15
Node Left Objective IInf Best_Integer Best_Bound ItCnt Gap
0+ 0 nan nan 110.3567 0.0000 nan 100.00%
0+ 0 nan nan 82.1268 0.0000 nan 100.00%
0 0 0.0000 23 82.1268 0.0000 126 100.00%
0+ 0 nan nan 37.4097 0.0000 nan 100.00%
0 0 0.0000 17 37.4097 Cuts:4 133 100.00%
0 0 0.0000 17 37.4097 Cuts:15 159 100.00%
0 0 0.0000 16 37.4097 Disjcuts:1 166 100.00%
0+ 0 nan nan 22.0536 0.0000 nan 100.00%
0 2 0.0000 15 22.0536 0.0000 166 100.00%
CPXPARAM_MIP_Cuts_Gomory-Disjunctive:Gomory 0
CPXPARAM_MIP_Cuts_Gomory-Disjunctive:Disjunctive 1
16
Node Left Objective IInf Best_Integer Best_Bound ItCnt Gap
0+ 0 nan nan 109.2984 0.0000 nan 100.00%
0+ 0 nan nan 97.6971 0.0000 nan 100.00%
0 0 0.0000 27 97.6971 0.0000 150 100.00%
0 0 9.1171 30 97.6971 Cuts:31 225 90.67%
0 0 12.5313 30 97.6971 Cuts:33 266 87.17%
0 0 13.6383 31 97.6971 Cuts:12 287 86.04%
0 0 16.6485 32 97.6971 Cuts:25 324 82.96%
0 0 17.9901 31 97.6971 Cuts:24 368 81.59%
0 0 17.9901 31 97.6971 Fract:1 369 81.59%
0+ 0 nan nan 84.6322 17.9901 nan 78.74%
0+ 0 nan nan 66.1527 17.9901 nan 72.81%
0 2 17.9901 31 66.1527 18.2794 369 72.37%
CPXPARAM_MIP_Cuts_Gomory-Disjunctive:Gomory 3
CPXPARAM_MIP_Cuts_Gomory-Disjunctive:Disjunctive 18
17
Node Left Objective IInf Best_Integer Best_Bound ItCnt Gap
0+ 0 nan nan 109.2984 0.0000 nan 100.00%
0+ 0 nan nan 97.6971 0.0000 nan 100.00%
0 0 0.0000 27 97.6971 0.0000 125 100.00%
0+ 0 nan nan 71.0845 0.0000 nan 100.00%
0 0 0.0000 21 71.0845 Disjcuts:1 130 100.00%
0+ 0 nan nan 59.5187 0.0000 nan 100.00%
0 0 0.0000 20 59.5187 Cuts:21 146 100.00%
0+ 0 nan nan 53.7459 0.0000 nan 100.00%
0 0 0.0000 22 53.7459 Cuts:18 189 100.00%
0+ 0 nan nan 50.7304 0.0000 nan 100.00%
0+ 0 nan nan 40.4532 0.0000 nan 100.00%
0 2 0.0000 21 40.4532 0.0000 189 100.00%
CPXPARAM_MIP_Cuts_Gomory-Disjunctive:Gomory 0
CPXPARAM_MIP_Cuts_Gomory-Disjunctive:Disjunctive 0
18
Node Left Objective IInf Best_Integer Best_Bound ItCnt Gap
0+ 0 nan nan 109.2984 0.0000 nan 100.00%
0+ 0 nan nan 86.6088 0.0000 nan 100.00%
0 0 11.3010 19 86.6088 11.3010 155 86.95%
0 0 15.3683 21 86.6088 Cuts:17 183 82.26%
0 0 17.6948 24 86.6088 Cuts:19 213 79.57%
0 0 19.5013 24 86.6088 Cuts:16 253 77.48%
0 0 20.2157 24 86.6088 Cuts:14 281 76.66%
0 0 20.9548 26 86.6088 Disjcuts:5 308 75.81%
0 0 21.1128 28 86.6088 Cuts:6 324 75.62%
0+ 0 nan nan 57.5333 21.1128 nan 63.30%
0 2 21.1128 28 57.5333 21.3158 324 62.95%
CPXPARAM_MIP_Cuts_Gomory-Disjunctive:Gomory 2
CPXPARAM_MIP_Cuts_Gomory-Disjunctive:Disjunctive 18
19
Node Left Objective IInf Best_Integer Best_Bound ItCnt Gap
0+ 0 nan nan 109.2984 0.0000 nan 100.00%
0+ 0 nan nan 86.6088 0.0000 nan 100.00%
0 0 0.0000 23 86.6088 0.0000 119 100.00%
0+ 0 nan nan 49.5540 0.0000 nan 100.00%
0 0 0.0000 17 49.5540 Cuts:3 132 100.00%
0 0 0.0000 17 49.5540 Cuts:18 172 100.00%
0 0 0.0000 15 49.5540 Disjcuts:1 179 100.00%
0+ 0 nan nan 45.3145 0.0000 nan 100.00%
0+ 0 nan nan 29.3316 0.0000 nan 100.00%
0 2 0.0000 15 29.3316 0.0000 179 100.00%
CPXPARAM_MIP_Cuts_Gomory-Disjunctive:Gomory 1
CPXPARAM_MIP_Cuts_Gomory-Disjunctive:Disjunctive 1
20
Node Left Objective IInf Best_Integer Best_Bound ItCnt Gap
0+ 0 nan nan 93.3792 0.0000 nan 100.00%
0+ 0 nan nan 84.6822 0.0000 nan 100.00%
0 0 0.0000 27 84.6822 0.0000 133 100.00%
0+ 0 nan nan 52.3615 0.0000 nan 100.00%
0 0 6.8417 28 52.3615 Cuts:30 214 86.93%
0 0 9.1510 28 52.3615 Cuts:26 252 82.52%
0 0 10.1622 29 52.3615 Cuts:21 287 80.59%
0 0 11.2763 31 52.3615 Cuts:18 314 78.46%
0 0 12.2383 28 52.3615 Cuts:17 355 76.63%
0+ 0 nan nan 49.4052 12.2383 nan 75.23%
0+ 0 nan nan 41.1646 12.2383 nan 70.27%
0 2 12.2383 28 41.1646 12.4113 355 69.85%
CPXPARAM_MIP_Cuts_Gomory-Disjunctive:Gomory 1
CPXPARAM_MIP_Cuts_Gomory-Disjunctive:Disjunctive 12
21
Node Left Objective IInf Best_Integer Best_Bound ItCnt Gap
0+ 0 nan nan 93.3792 0.0000 nan 100.00%
0+ 0 nan nan 84.6822 0.0000 nan 100.00%
0 0 0.0000 27 84.6822 0.0000 121 100.00%
0+ 0 nan nan 33.7589 0.0000 nan 100.00%
0 0 0.0000 21 33.7589 Cuts:9 138 100.00%
0+ 0 nan nan 30.6520 0.0000 nan 100.00%
0 0 0.0000 20 30.6520 Cuts:19 193 100.00%
0 0 0.0000 19 30.6520 Fract:3 198 100.00%
0+ 0 nan nan 24.0172 0.0000 nan 100.00%
0+ 0 nan nan 15.3944 0.0000 nan 100.00%
0 2 0.0000 18 15.3944 0.0000 198 100.00%
CPXPARAM_MIP_Cuts_Gomory-Disjunctive:Gomory 0
CPXPARAM_MIP_Cuts_Gomory-Disjunctive:Disjunctive 0
22
Node Left Objective IInf Best_Integer Best_Bound ItCnt Gap
0+ 0 nan nan 93.3792 0.0000 nan 100.00%
0+ 0 nan nan 77.4137 0.0000 nan 100.00%
0 0 0.0000 23 77.4137 0.0000 135 100.00%
0+ 0 nan nan 51.5425 0.0000 nan 100.00%
0 0 4.5025 23 51.5425 Cuts:19 166 91.26%
0 0 8.6327 23 51.5425 Cuts:24 206 83.25%
0 0 9.3311 26 51.5425 Disjcuts:10 244 81.90%
0 0 9.7902 26 51.5425 Cuts:10 272 81.01%
0 0 10.2118 25 51.5425 Cuts:15 307 80.19%
0+ 0 nan nan 31.0783 10.2118 nan 67.14%
0+ 0 nan nan 28.5540 10.2118 nan 64.24%
0 2 10.2118 25 28.5540 10.2169 307 64.22%
CPXPARAM_MIP_Cuts_Gomory-Disjunctive:Gomory 1
CPXPARAM_MIP_Cuts_Gomory-Disjunctive:Disjunctive 15
23
Node Left Objective IInf Best_Integer Best_Bound ItCnt Gap
0+ 0 nan nan 93.3792 0.0000 nan 100.00%
0+ 0 nan nan 77.4137 0.0000 nan 100.00%
0 0 0.0000 22 77.4137 0.0000 123 100.00%
0+ 0 nan nan 44.2766 0.0000 nan 100.00%
0+ 0 nan nan 39.2549 0.0000 nan 100.00%
0+ 0 nan nan 29.4715 0.0000 nan 100.00%
0+ 0 nan nan 24.9683 0.0000 nan 100.00%
0 2 0.0000 16 24.9683 0.0000 123 100.00%
CPXPARAM_MIP_Cuts_Gomory-Disjunctive:Gomory 0
CPXPARAM_MIP_Cuts_Gomory-Disjunctive:Disjunctive 0
24
Node Left Objective IInf Best_Integer Best_Bound ItCnt Gap
0+ 0 nan nan 94.5045 0.0000 nan 100.00%
0+ 0 nan nan 83.7373 0.0000 nan 100.00%
0 0 0.0000 27 83.7373 0.0000 149 100.00%
0+ 0 nan nan 83.3613 0.0000 nan 100.00%
0 0 3.9655 28 83.3613 Cuts:23 204 95.24%
0 0 9.5529 29 83.3613 Cuts:34 252 88.54%
0 0 13.6194 25 83.3613 Cuts:19 298 83.66%
0+ 0 nan nan 63.5480 13.6194 nan 78.57%
0 0 15.1106 30 63.5480 Cuts:16 340 76.22%
0 0 16.9263 27 63.5480 Cuts:22 374 73.36%
0+ 0 nan nan 54.2993 16.9263 nan 68.83%
0+ 0 nan nan 41.2559 16.9263 nan 58.97%
0 2 16.9263 27 41.2559 16.9363 374 58.95%
CPXPARAM_MIP_Cuts_Gomory-Disjunctive:Gomory 1
CPXPARAM_MIP_Cuts_Gomory-Disjunctive:Disjunctive 12
25
Node Left Objective IInf Best_Integer Best_Bound ItCnt Gap
0+ 0 nan nan 94.5045 0.0000 nan 100.00%
0+ 0 nan nan 83.7373 0.0000 nan 100.00%
0 0 0.0000 27 83.7373 0.0000 131 100.00%
0+ 0 nan nan 37.6521 0.0000 nan 100.00%
0 0 0.0000 19 37.6521 Disjcuts:1 143 100.00%
0 0 0.0000 19 37.6521 Cuts:11 174 100.00%
0 0 0.0000 19 37.6521 Cuts:14 205 100.00%
0+ 0 nan nan 34.0409 0.0000 nan 100.00%
0 2 0.0000 19 34.0409 0.0000 205 100.00%
CPXPARAM_MIP_Cuts_Gomory-Disjunctive:Gomory 1
CPXPARAM_MIP_Cuts_Gomory-Disjunctive:Disjunctive 1
26
Node Left Objective IInf Best_Integer Best_Bound ItCnt Gap
0+ 0 nan nan 94.5045 0.0000 nan 100.00%
0+ 0 nan nan 77.4984 0.0000 nan 100.00%
0 0 0.0000 23 77.4984 0.0000 128 100.00%
0+ 0 nan nan 57.4577 0.0000 nan 100.00%
0 0 4.2240 24 57.4577 Cuts:33 247 92.65%
0 0 10.6109 25 57.4577 Cuts:26 298 81.53%
0 0 12.4697 24 57.4577 Cuts:17 320 78.30%
0 0 14.7771 27 57.4577 Cuts:15 364 74.28%
0 0 15.8935 29 57.4577 Cuts:21 392 72.34%
0 0 16.0029 27 57.4577 Disjcuts:1 405 72.15%
0 0 16.0192 27 57.4577 Disjcuts:1 412 72.12%
0+ 0 nan nan 37.5218 16.0192 nan 57.31%
0 2 16.0192 27 37.5218 16.0235 412 57.30%
CPXPARAM_MIP_Cuts_Gomory-Disjunctive:Gomory 3
CPXPARAM_MIP_Cuts_Gomory-Disjunctive:Disjunctive 14
27
Node Left Objective IInf Best_Integer Best_Bound ItCnt Gap
0+ 0 nan nan 94.5045 0.0000 nan 100.00%
0+ 0 nan nan 77.4984 0.0000 nan 100.00%
0 0 0.0000 23 77.4984 0.0000 115 100.00%
0+ 0 nan nan 29.2294 0.0000 nan 100.00%
0+ 0 nan nan 18.5243 0.0000 nan 100.00%
0+ 0 nan nan 18.3372 0.0000 nan 100.00%
0+ 0 nan nan 10.2788 0.0000 nan 100.00%
0 2 0.0000 14 10.2788 0.0000 115 100.00%
CPXPARAM_MIP_Cuts_Gomory-Disjunctive:Gomory 0
CPXPARAM_MIP_Cuts_Gomory-Disjunctive:Disjunctive 0
28
Node Left Objective IInf Best_Integer Best_Bound ItCnt Gap
0+ 0 nan nan 133.7092 0.0000 nan 100.00%
0+ 0 nan nan 129.6212 0.0000 nan 100.00%
0+ 0 nan nan 108.6480 0.0000 nan 100.00%
0 0 11.6826 21 108.6480 11.6826 155 89.25%
0 0 20.3951 24 108.6480 Cuts:14 192 81.23%
0 0 23.2474 29 108.6480 Cuts:18 223 78.60%
0 0 27.1104 31 108.6480 Disjcuts:14 257 75.05%
0 0 28.6533 32 108.6480 Cuts:18 291 73.63%
0 0 30.3673 33 108.6480 Cuts:20 317 72.05%
0 0 30.6373 31 108.6480 Disjcuts:2 326 71.80%
0 0 30.8033 32 108.6480 Disjcuts:1 332 71.65%
0 0 30.8933 33 108.6480 Disjcuts:2 335 71.57%
0 0 30.9054 31 108.6480 Disjcuts:1 340 71.55%
0+ 0 nan nan 79.1916 30.9054 nan 60.97%
0+ 0 nan nan 78.0903 30.9054 nan 60.42%
0 2 30.9054 31 78.0903 30.9082 340 60.42%
CPXPARAM_MIP_Cuts_Gomory-Disjunctive:Gomory 2
CPXPARAM_MIP_Cuts_Gomory-Disjunctive:Disjunctive 15
29
Node Left Objective IInf Best_Integer Best_Bound ItCnt Gap
0+ 0 nan nan 133.7092 0.0000 nan 100.00%
0+ 0 nan nan 129.6212 0.0000 nan 100.00%
0 0 0.0000 27 129.6212 0.0000 131 100.00%
0+ 0 nan nan 72.3650 0.0000 nan 100.00%
0+ 0 nan nan 64.1539 0.0000 nan 100.00%
0+ 0 nan nan 53.0370 0.0000 nan 100.00%
0+ 0 nan nan 41.9504 0.0000 nan 100.00%
0 2 0.0000 23 41.9504 0.0000 131 100.00%
CPXPARAM_MIP_Cuts_Gomory-Disjunctive:Gomory 0
CPXPARAM_MIP_Cuts_Gomory-Disjunctive:Disjunctive 0
30
Node Left Objective IInf Best_Integer Best_Bound ItCnt Gap
0+ 0 nan nan 133.7092 0.0000 nan 100.00%
0+ 0 nan nan 114.7297 0.0000 nan 100.00%
0 0 24.4161 16 114.7297 24.4161 157 78.72%
0+ 0 nan nan 105.4216 24.4161 nan 76.84%
0 0 29.5048 20 105.4216 Cuts:12 190 72.01%
0 0 33.2919 24 105.4216 Cuts:18 219 68.42%
0+ 0 nan nan 94.2982 33.2919 nan 64.70%
0 0 34.1850 23 94.2982 Cuts:11 231 63.75%
0 0 35.9364 26 94.2982 Cuts:16 259 61.89%
0 0 37.2435 28 94.2982 Disjcuts:10 292 60.50%
0 0 37.4505 26 94.2982 Cuts:2 301 60.28%
0+ 0 nan nan 71.3965 37.4505 nan 47.55%
0 2 37.4505 26 71.3965 37.5286 301 47.44%
CPXPARAM_MIP_Cuts_Gomory-Disjunctive:Gomory 3
CPXPARAM_MIP_Cuts_Gomory-Disjunctive:Disjunctive 15
31
Node Left Objective IInf Best_Integer Best_Bound ItCnt Gap
0+ 0 nan nan 133.7092 0.0000 nan 100.00%
0+ 0 nan nan 114.7297 0.0000 nan 100.00%
0 0 0.0000 23 114.7297 0.0000 118 100.00%
0+ 0 nan nan 56.4594 0.0000 nan 100.00%
0+ 0 nan nan 55.7068 0.0000 nan 100.00%
0+ 0 nan nan 38.3245 0.0000 nan 100.00%
0+ 0 nan nan 35.9797 0.0000 nan 100.00%
0 2 0.0000 15 35.9797 0.0000 118 100.00%
CPXPARAM_MIP_Cuts_Gomory-Disjunctive:Gomory 0
CPXPARAM_MIP_Cuts_Gomory-Disjunctive:Disjunctive 0
32
Node Left Objective IInf Best_Integer Best_Bound ItCnt Gap
0+ 0 nan nan 110.7059 0.0000 nan 100.00%
0+ 0 nan nan 93.8685 0.0000 nan 100.00%
0+ 0 nan nan 88.1652 0.0000 nan 100.00%
0 0 12.8255 21 88.1652 12.8255 166 85.45%
0 0 15.3001 26 88.1652 Cuts:15 195 82.65%
0+ 0 nan nan 70.2929 15.3001 nan 78.23%
0 0 17.2710 29 70.2929 Cuts:22 223 75.43%
0 0 19.3866 28 70.2929 Cuts:13 252 72.42%
0 0 19.8351 30 70.2929 Disjcuts:6 271 71.78%
0 0 20.0956 29 70.2929 Disjcuts:5 290 71.41%
0 0 20.7318 31 70.2929 Cuts:2 306 70.51%
0 0 20.7575 32 70.2929 Disjcuts:1 311 70.47%
0+ 0 nan nan 54.6069 20.7575 nan 61.99%
0 2 20.7575 32 54.6069 21.1466 311 61.27%
CPXPARAM_MIP_Cuts_Gomory-Disjunctive:Gomory 4
CPXPARAM_MIP_Cuts_Gomory-Disjunctive:Disjunctive 12
33
Node Left Objective IInf Best_Integer Best_Bound ItCnt Gap
0+ 0 nan nan 110.7059 0.0000 nan 100.00%
0+ 0 nan nan 93.8685 0.0000 nan 100.00%
0 0 0.0000 27 93.8685 0.0000 120 100.00%
0+ 0 nan nan 49.9720 0.0000 nan 100.00%
0 0 0.0000 21 49.9720 Cuts:8 141 100.00%
0 0 0.0000 22 49.9720 Cuts:16 161 100.00%
0+ 0 nan nan 47.9484 0.0000 nan 100.00%
0 0 0.0000 21 47.9484 Disjcuts:3 169 100.00%
0+ 0 nan nan 43.5797 0.0000 nan 100.00%
0+ 0 nan nan 33.0724 0.0000 nan 100.00%
0 2 0.0000 19 33.0724 0.0000 169 100.00%
CPXPARAM_MIP_Cuts_Gomory-Disjunctive:Gomory 0
CPXPARAM_MIP_Cuts_Gomory-Disjunctive:Disjunctive 1
34
Node Left Objective IInf Best_Integer Best_Bound ItCnt Gap
0+ 0 nan nan 110.7059 0.0000 nan 100.00%
0+ 0 nan nan 74.9711 0.0000 nan 100.00%
0 0 0.0000 23 74.9711 0.0000 152 100.00%
0+ 0 nan nan 70.1819 0.0000 nan 100.00%
0 0 3.0212 24 70.1819 Cuts:28 222 95.70%
0+ 0 nan nan 60.3772 3.0212 nan 95.00%
0 0 6.4960 25 60.3772 Cuts:24 265 89.24%
0 0 7.4041 27 60.3772 Cuts:15 300 87.74%
0 0 9.0575 27 60.3772 Cuts:26 350 85.00%
0 0 10.3275 24 60.3772 Cuts:31 403 82.90%
0 0 10.3950 26 60.3772 Disjcuts:1 414 82.78%
0 0 10.3984 28 60.3772 Disjcuts:1 416 82.78%
0+ 0 nan nan 47.5931 10.3984 nan 78.15%
0+ 0 nan nan 42.1412 10.3984 nan 75.32%
0 2 10.3984 28 42.1412 10.4214 416 75.27%
CPXPARAM_MIP_Cuts_Gomory-Disjunctive:Gomory 1
CPXPARAM_MIP_Cuts_Gomory-Disjunctive:Disjunctive 11
35
Node Left Objective IInf Best_Integer Best_Bound ItCnt Gap
0+ 0 nan nan 110.7059 0.0000 nan 100.00%
0+ 0 nan nan 74.9711 0.0000 nan 100.00%
0 0 0.0000 23 74.9711 0.0000 115 100.00%
0+ 0 nan nan 29.6008 0.0000 nan 100.00%
0 0 0.0000 17 29.6008 Cuts:3 142 100.00%
0 0 0.0000 17 29.6008 Cuts:12 172 100.00%
0+ 0 nan nan 25.6111 0.0000 nan 100.00%
0 2 0.0000 16 25.6111 0.0000 172 100.00%
CPXPARAM_MIP_Cuts_Gomory-Disjunctive:Gomory 0
CPXPARAM_MIP_Cuts_Gomory-Disjunctive:Disjunctive 0
36
Node Left Objective IInf Best_Integer Best_Bound ItCnt Gap
0+ 0 nan nan 123.7135 0.0000 nan 100.00%
0+ 0 nan nan 108.6148 0.0000 nan 100.00%
0+ 0 nan nan 99.0366 0.0000 nan 100.00%
0 0 0.0000 27 99.0366 0.0000 139 100.00%
0+ 0 nan nan 98.7082 0.0000 nan 100.00%
0 0 2.8951 31 98.7082 Cuts:30 212 97.07%
0 0 7.3564 29 98.7082 Cuts:20 241 92.55%
0 0 8.4786 29 98.7082 Cuts:20 261 91.41%
0 0 9.6986 28 98.7082 Cuts:8 292 90.17%
0+ 0 nan nan 91.0415 9.6986 nan 89.35%
0 0 10.8247 28 91.0415 Cuts:19 320 88.11%
0 0 11.0030 28 91.0415 Disjcuts:1 329 87.91%
0 0 11.0469 30 91.0415 Disjcuts:1 335 87.87%
0+ 0 nan nan 76.0265 11.0469 nan 85.47%
0+ 0 nan nan 64.1415 11.0469 nan 82.78%
0+ 0 nan nan 62.8679 11.0469 nan 82.43%
0 2 11.0469 30 62.8679 11.2558 335 82.10%
CPXPARAM_MIP_Cuts_Gomory-Disjunctive:Gomory 1
CPXPARAM_MIP_Cuts_Gomory-Disjunctive:Disjunctive 9
37
Node Left Objective IInf Best_Integer Best_Bound ItCnt Gap
0+ 0 nan nan 123.7135 0.0000 nan 100.00%
0+ 0 nan nan 108.6148 0.0000 nan 100.00%
0 0 0.0000 27 108.6148 0.0000 124 100.00%
0+ 0 nan nan 71.2777 0.0000 nan 100.00%
0 0 0.0000 19 71.2777 Disjcuts:1 132 100.00%
0+ 0 nan nan 58.7503 0.0000 nan 100.00%
0 0 0.0000 19 58.7503 Cuts:13 169 100.00%
0 0 0.0000 20 58.7503 Cuts:14 220 100.00%
0+ 0 nan nan 51.7259 0.0000 nan 100.00%
0+ 0 nan nan 40.7369 0.0000 nan 100.00%
0+ 0 nan nan 31.1571 0.0000 nan 100.00%
0 2 0.0000 19 31.1571 0.0000 220 100.00%
CPXPARAM_MIP_Cuts_Gomory-Disjunctive:Gomory 0
CPXPARAM_MIP_Cuts_Gomory-Disjunctive:Disjunctive 1
38
Node Left Objective IInf Best_Integer Best_Bound ItCnt Gap
0+ 0 nan nan 123.7135 0.0000 nan 100.00%
0+ 0 nan nan 89.1896 0.0000 nan 100.00%
0 0 4.5425 20 89.1896 4.5425 153 94.91%
0+ 0 nan nan 83.5087 4.5425 nan 94.56%
0 0 11.5399 23 83.5087 Cuts:21 180 86.18%
0 0 14.0956 26 83.5087 Cuts:26 204 83.12%
0 0 16.7029 27 83.5087 Cuts:17 232 80.00%
0 0 19.2462 23 83.5087 Cuts:25 273 76.95%
0 0 20.7272 25 83.5087 Cuts:17 308 75.18%
0 0 21.0417 25 83.5087 Disjcuts:2 322 74.80%
0+ 0 nan nan 56.0854 21.0417 nan 62.48%
0+ 0 nan nan 50.0512 21.0417 nan 57.96%
0 2 21.0417 25 50.0512 21.1570 322 57.73%
CPXPARAM_MIP_Cuts_Gomory-Disjunctive:Gomory 0
CPXPARAM_MIP_Cuts_Gomory-Disjunctive:Disjunctive 17
39
Node Left Objective IInf Best_Integer Best_Bound ItCnt Gap
0+ 0 nan nan 123.7135 0.0000 nan 100.00%
0+ 0 nan nan 89.1896 0.0000 nan 100.00%
0 0 0.0000 23 89.1896 0.0000 129 100.00%
0+ 0 nan nan 59.4311 0.0000 nan 100.00%
0+ 0 nan nan 35.2998 0.0000 nan 100.00%
0+ 0 nan nan 25.4616 0.0000 nan 100.00%
0 2 0.0000 15 25.4616 0.0000 129 100.00%
CPXPARAM_MIP_Cuts_Gomory-Disjunctive:Gomory 0
CPXPARAM_MIP_Cuts_Gomory-Disjunctive:Disjunctive 0
